experiments/sat_smt/run/sat-r/results/unused_2.res
solved=true
solvingTime=18.081256866455078125
nActions=10