experiments/sat_smt/run/sat-r/results/unused_2.out
Timesteps: 1
s UNSATISFIABLE
real 0.08
user 0.01
sys 0.00
Timesteps: 2
s UNSATISFIABLE
real 0.14
user 0.03
sys 0.00
Timesteps: 3
s UNSATISFIABLE
real 0.17
user 0.05
sys 0.00
Timesteps: 4
s UNSATISFIABLE
real 0.17
user 0.09
sys 0.01
Timesteps: 5
s UNSATISFIABLE
real 0.37
user 0.26
sys 0.01
Timesteps: 6
s UNSATISFIABLE
real 0.72
user 0.61
sys 0.01
Timesteps: 7
s UNSATISFIABLE
real 1.53
user 1.40
sys 0.01
Timesteps: 8
s UNSATISFIABLE
real 3.43
user 3.28
sys 0.01
Timesteps: 9
s UNSATISFIABLE
real 5.87
user 5.64
sys 0.01
Timesteps: 10
s SATISFIABLE
real 5.40
user 5.18
sys 0.03
